NAME 
OBJSENSE MAX
ROWS
 N  OBJ
 L  packing[0]
 L  packing[1]
 L  packing[2]
 L  packing[3]
 L  packing[4]
 L  packing[5]
 L  packing[6]
 L  packing[7]
 L  packing[8]
 L  packing[9]
 L  packing[10]
 L  packing[11]
 L  packing[12]
 L  packing[13]
 L  packing[14]
 L  packing[15]
 L  packing[16]
 L  packing[17]
 L  packing[18]
 L  packing[19]
 L  packing[20]
 L  packing[21]
 L  packing[22]
 L  packing[23]
 L  packing[24]
 L  packing[25]
 L  packing[26]
 L  packing[27]
 L  packing[28]
 L  packing[29]
 L  packing[30]
 L  packing[31]
 L  packing[32]
 L  packing[33]
 L  packing[34]
 L  packing[35]
 L  packing[36]
 L  packing[37]
 L  packing[38]
 L  packing[39]
 L  packing[40]
 L  packing[41]
 L  packing[42]
 L  packing[43]
 L  packing[44]
 L  packing[45]
 L  packing[46]
 L  packing[47]
 L  packing[48]
 L  packing[49]
COLUMNS
    MARKER    'MARKER'                 'INTORG'
    x[1]      OBJ       189
    x[1]      packing[0]  136
    x[1]      packing[1]  76
    x[1]      packing[2]  113
    x[1]      packing[3]  143
    x[1]      packing[4]  63
    x[1]      packing[5]  55
    x[1]      packing[8]  191
    x[1]      packing[9]  57
    x[1]      packing[10]  68
    x[1]      packing[11]  162
    x[1]      packing[13]  141
    x[1]      packing[14]  37
    x[1]      packing[16]  174
    x[1]      packing[17]  152
    x[1]      packing[18]  91
    x[1]      packing[19]  75
    x[1]      packing[20]  153
    x[1]      packing[21]  95
    x[1]      packing[22]  27
    x[1]      packing[23]  10
    x[1]      packing[24]  66
    x[1]      packing[25]  172
    x[1]      packing[26]  59
    x[1]      packing[28]  126
    x[1]      packing[30]  44
    x[1]      packing[31]  143
    x[1]      packing[32]  139
    x[1]      packing[33]  95
    x[1]      packing[34]  25
    x[1]      packing[36]  34
    x[1]      packing[37]  129
    x[1]      packing[38]  125
    x[1]      packing[39]  185
    x[1]      packing[42]  74
    x[1]      packing[43]  54
    x[1]      packing[44]  58
    x[1]      packing[45]  121
    x[1]      packing[46]  65
    x[1]      packing[47]  161
    x[1]      packing[48]  154
    x[2]      OBJ       152
    x[2]      packing[0]  149
    x[2]      packing[2]  61
    x[2]      packing[3]  142
    x[2]      packing[4]  100
    x[2]      packing[7]  163
    x[2]      packing[8]  15
    x[2]      packing[9]  52
    x[2]      packing[11]  44
    x[2]      packing[12]  69
    x[2]      packing[13]  110
    x[2]      packing[15]  14
    x[2]      packing[18]  118
    x[2]      packing[20]  155
    x[2]      packing[22]  49
    x[2]      packing[24]  31
    x[2]      packing[25]  8
    x[2]      packing[27]  63
    x[2]      packing[28]  102
    x[2]      packing[29]  114
    x[2]      packing[30]  187
    x[2]      packing[33]  168
    x[2]      packing[35]  77
    x[2]      packing[36]  2
    x[2]      packing[38]  4
    x[2]      packing[39]  11
    x[2]      packing[40]  95
    x[2]      packing[41]  132
    x[2]      packing[42]  87
    x[2]      packing[43]  60
    x[2]      packing[44]  104
    x[2]      packing[45]  13
    x[2]      packing[46]  97
    x[2]      packing[47]  132
    x[2]      packing[48]  115
    x[3]      OBJ       93
    x[3]      packing[0]  96
    x[3]      packing[1]  163
    x[3]      packing[2]  147
    x[3]      packing[3]  190
    x[3]      packing[4]  24
    x[3]      packing[5]  118
    x[3]      packing[6]  161
    x[3]      packing[8]  120
    x[3]      packing[9]  81
    x[3]      packing[10]  22
    x[3]      packing[11]  59
    x[3]      packing[12]  44
    x[3]      packing[13]  29
    x[3]      packing[14]  78
    x[3]      packing[16]  111
    x[3]      packing[17]  62
    x[3]      packing[20]  147
    x[3]      packing[21]  20
    x[3]      packing[22]  25
    x[3]      packing[23]  85
    x[3]      packing[24]  7
    x[3]      packing[25]  189
    x[3]      packing[26]  128
    x[3]      packing[28]  65
    x[3]      packing[29]  105
    x[3]      packing[33]  60
    x[3]      packing[34]  57
    x[3]      packing[35]  90
    x[3]      packing[37]  188
    x[3]      packing[38]  155
    x[3]      packing[39]  115
    x[3]      packing[40]  58
    x[3]      packing[41]  139
    x[3]      packing[43]  199
    x[3]      packing[45]  117
    x[3]      packing[46]  10
    x[3]      packing[47]  198
    x[3]      packing[48]  64
    x[3]      packing[49]  174
    x[4]      OBJ       131
    x[4]      packing[0]  152
    x[4]      packing[1]  3
    x[4]      packing[2]  82
    x[4]      packing[3]  90
    x[4]      packing[5]  99
    x[4]      packing[6]  136
    x[4]      packing[8]  56
    x[4]      packing[9]  114
    x[4]      packing[11]  132
    x[4]      packing[12]  48
    x[4]      packing[13]  24
    x[4]      packing[15]  34
    x[4]      packing[16]  86
    x[4]      packing[17]  166
    x[4]      packing[18]  144
    x[4]      packing[20]  190
    x[4]      packing[23]  152
    x[4]      packing[24]  89
    x[4]      packing[25]  121
    x[4]      packing[26]  18
    x[4]      packing[30]  93
    x[4]      packing[32]  126
    x[4]      packing[33]  99
    x[4]      packing[35]  138
    x[4]      packing[36]  199
    x[4]      packing[37]  156
    x[4]      packing[39]  26
    x[4]      packing[40]  103
    x[4]      packing[42]  27
    x[4]      packing[43]  56
    x[4]      packing[44]  199
    x[4]      packing[45]  47
    x[4]      packing[47]  128
    x[4]      packing[49]  92
    x[5]      OBJ       65
    x[5]      packing[1]  132
    x[5]      packing[2]  83
    x[5]      packing[3]  42
    x[5]      packing[4]  95
    x[5]      packing[5]  42
    x[5]      packing[7]  50
    x[5]      packing[9]  102
    x[5]      packing[10]  91
    x[5]      packing[11]  110
    x[5]      packing[12]  43
    x[5]      packing[13]  36
    x[5]      packing[14]  78
    x[5]      packing[15]  30
    x[5]      packing[16]  172
    x[5]      packing[17]  143
    x[5]      packing[18]  131
    x[5]      packing[19]  30
    x[5]      packing[20]  95
    x[5]      packing[21]  117
    x[5]      packing[22]  65
    x[5]      packing[23]  195
    x[5]      packing[25]  161
    x[5]      packing[26]  54
    x[5]      packing[28]  6
    x[5]      packing[29]  15
    x[5]      packing[31]  157
    x[5]      packing[33]  123
    x[5]      packing[34]  186
    x[5]      packing[35]  184
    x[5]      packing[36]  2
    x[5]      packing[39]  68
    x[5]      packing[40]  12
    x[5]      packing[42]  88
    x[5]      packing[46]  24
    x[6]      OBJ       130
    x[6]      packing[0]  102
    x[6]      packing[2]  111
    x[6]      packing[3]  104
    x[6]      packing[5]  199
    x[6]      packing[6]  49
    x[6]      packing[7]  142
    x[6]      packing[8]  151
    x[6]      packing[10]  62
    x[6]      packing[12]  52
    x[6]      packing[13]  79
    x[6]      packing[17]  49
    x[6]      packing[20]  105
    x[6]      packing[21]  17
    x[6]      packing[22]  86
    x[6]      packing[23]  150
    x[6]      packing[24]  24
    x[6]      packing[25]  71
    x[6]      packing[26]  111
    x[6]      packing[27]  115
    x[6]      packing[28]  169
    x[6]      packing[29]  71
    x[6]      packing[30]  18
    x[6]      packing[31]  24
    x[6]      packing[32]  133
    x[6]      packing[33]  95
    x[6]      packing[34]  180
    x[6]      packing[35]  124
    x[6]      packing[36]  4
    x[6]      packing[37]  47
    x[6]      packing[38]  59
    x[6]      packing[39]  92
    x[6]      packing[40]  115
    x[6]      packing[41]  59
    x[6]      packing[42]  90
    x[6]      packing[44]  57
    x[6]      packing[45]  36
    x[6]      packing[47]  59
    x[6]      packing[48]  120
    x[6]      packing[49]  96
    x[7]      OBJ       99
    x[7]      packing[1]  174
    x[7]      packing[3]  93
    x[7]      packing[4]  103
    x[7]      packing[5]  73
    x[7]      packing[6]  131
    x[7]      packing[8]  152
    x[7]      packing[10]  80
    x[7]      packing[12]  170
    x[7]      packing[13]  44
    x[7]      packing[14]  47
    x[7]      packing[15]  50
    x[7]      packing[16]  183
    x[7]      packing[18]  58
    x[7]      packing[19]  47
    x[7]      packing[22]  144
    x[7]      packing[24]  92
    x[7]      packing[25]  194
    x[7]      packing[26]  164
    x[7]      packing[29]  170
    x[7]      packing[30]  84
    x[7]      packing[32]  165
    x[7]      packing[33]  106
    x[7]      packing[34]  91
    x[7]      packing[35]  71
    x[7]      packing[36]  128
    x[7]      packing[39]  26
    x[7]      packing[40]  82
    x[7]      packing[41]  93
    x[7]      packing[42]  1
    x[7]      packing[43]  162
    x[8]      OBJ       184
    x[8]      packing[0]  74
    x[8]      packing[1]  34
    x[8]      packing[3]  2
    x[8]      packing[5]  92
    x[8]      packing[6]  57
    x[8]      packing[8]  75
    x[8]      packing[9]  98
    x[8]      packing[10]  95
    x[8]      packing[11]  167
    x[8]      packing[12]  88
    x[8]      packing[13]  32
    x[8]      packing[16]  11
    x[8]      packing[18]  101
    x[8]      packing[19]  194
    x[8]      packing[20]  1
    x[8]      packing[21]  192
    x[8]      packing[22]  125
    x[8]      packing[23]  90
    x[8]      packing[24]  162
    x[8]      packing[25]  108
    x[8]      packing[27]  34
    x[8]      packing[28]  49
    x[8]      packing[29]  67
    x[8]      packing[30]  10
    x[8]      packing[31]  143
    x[8]      packing[32]  36
    x[8]      packing[33]  112
    x[8]      packing[34]  38
    x[8]      packing[39]  154
    x[8]      packing[41]  147
    x[8]      packing[42]  173
    x[8]      packing[44]  17
    x[8]      packing[45]  79
    x[8]      packing[48]  154
    x[8]      packing[49]  92
    x[9]      OBJ       163
    x[9]      packing[0]  4
    x[9]      packing[1]  98
    x[9]      packing[2]  68
    x[9]      packing[3]  51
    x[9]      packing[5]  61
    x[9]      packing[6]  96
    x[9]      packing[7]  158
    x[9]      packing[8]  52
    x[9]      packing[9]  102
    x[9]      packing[11]  51
    x[9]      packing[13]  175
    x[9]      packing[14]  173
    x[9]      packing[15]  91
    x[9]      packing[16]  67
    x[9]      packing[17]  118
    x[9]      packing[18]  8
    x[9]      packing[19]  19
    x[9]      packing[20]  9
    x[9]      packing[21]  46
    x[9]      packing[22]  98
    x[9]      packing[23]  167
    x[9]      packing[24]  181
    x[9]      packing[25]  181
    x[9]      packing[26]  156
    x[9]      packing[27]  173
    x[9]      packing[28]  182
    x[9]      packing[29]  108
    x[9]      packing[30]  158
    x[9]      packing[34]  126
    x[9]      packing[37]  177
    x[9]      packing[39]  1
    x[9]      packing[40]  32
    x[9]      packing[42]  111
    x[9]      packing[43]  168
    x[9]      packing[46]  121
    x[9]      packing[47]  20
    x[9]      packing[48]  119
    x[10]     OBJ       128
    x[10]     packing[1]  79
    x[10]     packing[2]  21
    x[10]     packing[3]  143
    x[10]     packing[4]  107
    x[10]     packing[7]  45
    x[10]     packing[8]  23
    x[10]     packing[9]  166
    x[10]     packing[10]  125
    x[10]     packing[11]  31
    x[10]     packing[13]  106
    x[10]     packing[15]  47
    x[10]     packing[18]  194
    x[10]     packing[19]  104
    x[10]     packing[20]  74
    x[10]     packing[21]  125
    x[10]     packing[22]  36
    x[10]     packing[23]  35
    x[10]     packing[24]  29
    x[10]     packing[25]  182
    x[10]     packing[26]  123
    x[10]     packing[27]  132
    x[10]     packing[28]  185
    x[10]     packing[29]  111
    x[10]     packing[30]  2
    x[10]     packing[32]  19
    x[10]     packing[33]  143
    x[10]     packing[34]  159
    x[10]     packing[35]  68
    x[10]     packing[36]  181
    x[10]     packing[37]  158
    x[10]     packing[39]  119
    x[10]     packing[40]  46
    x[10]     packing[43]  115
    x[10]     packing[44]  13
    x[10]     packing[45]  199
    x[10]     packing[46]  195
    x[11]     OBJ       71
    x[11]     packing[0]  113
    x[11]     packing[1]  195
    x[11]     packing[3]  163
    x[11]     packing[7]  130
    x[11]     packing[8]  4
    x[11]     packing[9]  80
    x[11]     packing[10]  48
    x[11]     packing[11]  127
    x[11]     packing[15]  58
    x[11]     packing[16]  3
    x[11]     packing[17]  31
    x[11]     packing[18]  91
    x[11]     packing[19]  110
    x[11]     packing[20]  84
    x[11]     packing[21]  47
    x[11]     packing[25]  188
    x[11]     packing[26]  67
    x[11]     packing[29]  173
    x[11]     packing[30]  193
    x[11]     packing[32]  1
    x[11]     packing[33]  60
    x[11]     packing[35]  152
    x[11]     packing[36]  196
    x[11]     packing[37]  196
    x[11]     packing[38]  32
    x[11]     packing[39]  135
    x[11]     packing[40]  125
    x[11]     packing[41]  110
    x[11]     packing[43]  192
    x[11]     packing[44]  75
    x[11]     packing[45]  39
    x[11]     packing[48]  158
    x[11]     packing[49]  186
    x[12]     OBJ       81
    x[12]     packing[0]  118
    x[12]     packing[1]  55
    x[12]     packing[2]  53
    x[12]     packing[3]  56
    x[12]     packing[4]  134
    x[12]     packing[5]  29
    x[12]     packing[6]  111
    x[12]     packing[8]  132
    x[12]     packing[9]  152
    x[12]     packing[11]  136
    x[12]     packing[13]  147
    x[12]     packing[14]  9
    x[12]     packing[15]  47
    x[12]     packing[16]  29
    x[12]     packing[17]  52
    x[12]     packing[18]  116
    x[12]     packing[19]  134
    x[12]     packing[20]  45
    x[12]     packing[21]  62
    x[12]     packing[22]  46
    x[12]     packing[23]  195
    x[12]     packing[24]  144
    x[12]     packing[25]  160
    x[12]     packing[26]  109
    x[12]     packing[28]  33
    x[12]     packing[29]  163
    x[12]     packing[30]  117
    x[12]     packing[32]  179
    x[12]     packing[33]  48
    x[12]     packing[36]  176
    x[12]     packing[37]  194
    x[12]     packing[40]  149
    x[12]     packing[41]  183
    x[12]     packing[42]  73
    x[12]     packing[43]  19
    x[12]     packing[44]  197
    x[12]     packing[45]  157
    x[12]     packing[46]  23
    x[12]     packing[47]  163
    x[12]     packing[48]  147
    x[12]     packing[49]  21
    x[13]     OBJ       20
    x[13]     packing[0]  65
    x[13]     packing[1]  129
    x[13]     packing[3]  44
    x[13]     packing[5]  109
    x[13]     packing[7]  28
    x[13]     packing[8]  151
    x[13]     packing[9]  182
    x[13]     packing[11]  70
    x[13]     packing[13]  3
    x[13]     packing[15]  42
    x[13]     packing[16]  192
    x[13]     packing[17]  88
    x[13]     packing[18]  3
    x[13]     packing[20]  34
    x[13]     packing[21]  78
    x[13]     packing[22]  152
    x[13]     packing[24]  29
    x[13]     packing[25]  120
    x[13]     packing[28]  83
    x[13]     packing[29]  90
    x[13]     packing[31]  43
    x[13]     packing[32]  185
    x[13]     packing[34]  33
    x[13]     packing[36]  100
    x[13]     packing[37]  44
    x[13]     packing[39]  148
    x[13]     packing[42]  171
    x[13]     packing[43]  194
    x[13]     packing[44]  169
    x[13]     packing[45]  84
    x[13]     packing[46]  137
    x[14]     OBJ       31
    x[14]     packing[1]  30
    x[14]     packing[2]  134
    x[14]     packing[4]  16
    x[14]     packing[5]  156
    x[14]     packing[6]  86
    x[14]     packing[7]  147
    x[14]     packing[8]  189
    x[14]     packing[9]  51
    x[14]     packing[10]  48
    x[14]     packing[12]  40
    x[14]     packing[13]  175
    x[14]     packing[14]  132
    x[14]     packing[17]  95
    x[14]     packing[18]  113
    x[14]     packing[19]  163
    x[14]     packing[20]  186
    x[14]     packing[21]  38
    x[14]     packing[22]  155
    x[14]     packing[25]  18
    x[14]     packing[26]  196
    x[14]     packing[27]  44
    x[14]     packing[29]  185
    x[14]     packing[30]  33
    x[14]     packing[33]  187
    x[14]     packing[35]  79
    x[14]     packing[36]  172
    x[14]     packing[37]  70
    x[14]     packing[38]  95
    x[14]     packing[39]  196
    x[14]     packing[40]  102
    x[14]     packing[42]  102
    x[14]     packing[43]  35
    x[14]     packing[45]  53
    x[14]     packing[46]  22
    x[14]     packing[47]  85
    x[15]     OBJ       120
    x[15]     packing[0]  168
    x[15]     packing[2]  90
    x[15]     packing[3]  195
    x[15]     packing[4]  102
    x[15]     packing[5]  99
    x[15]     packing[6]  132
    x[15]     packing[7]  95
    x[15]     packing[9]  179
    x[15]     packing[13]  159
    x[15]     packing[14]  73
    x[15]     packing[15]  87
    x[15]     packing[16]  20
    x[15]     packing[17]  128
    x[15]     packing[18]  153
    x[15]     packing[20]  191
    x[15]     packing[21]  73
    x[15]     packing[22]  108
    x[15]     packing[24]  27
    x[15]     packing[25]  191
    x[15]     packing[26]  108
    x[15]     packing[27]  106
    x[15]     packing[28]  179
    x[15]     packing[29]  29
    x[15]     packing[30]  183
    x[15]     packing[31]  188
    x[15]     packing[32]  166
    x[15]     packing[34]  66
    x[15]     packing[35]  41
    x[15]     packing[37]  77
    x[15]     packing[39]  9
    x[15]     packing[40]  130
    x[15]     packing[41]  93
    x[15]     packing[42]  60
    x[15]     packing[43]  157
    x[15]     packing[44]  141
    x[15]     packing[45]  145
    x[15]     packing[46]  57
    x[15]     packing[47]  27
    x[15]     packing[48]  167
    x[15]     packing[49]  151
    x[16]     OBJ       15
    x[16]     packing[0]  71
    x[16]     packing[1]  42
    x[16]     packing[2]  151
    x[16]     packing[3]  173
    x[16]     packing[4]  36
    x[16]     packing[5]  105
    x[16]     packing[6]  183
    x[16]     packing[7]  38
    x[16]     packing[9]  29
    x[16]     packing[10]  100
    x[16]     packing[11]  83
    x[16]     packing[12]  34
    x[16]     packing[13]  182
    x[16]     packing[15]  67
    x[16]     packing[16]  142
    x[16]     packing[20]  55
    x[16]     packing[21]  143
    x[16]     packing[22]  1
    x[16]     packing[23]  175
    x[16]     packing[24]  3
    x[16]     packing[25]  184
    x[16]     packing[27]  30
    x[16]     packing[28]  25
    x[16]     packing[29]  50
    x[16]     packing[30]  128
    x[16]     packing[32]  168
    x[16]     packing[35]  69
    x[16]     packing[37]  13
    x[16]     packing[38]  62
    x[16]     packing[40]  63
    x[16]     packing[41]  41
    x[16]     packing[42]  8
    x[16]     packing[44]  102
    x[16]     packing[45]  45
    x[16]     packing[47]  55
    x[16]     packing[48]  158
    x[17]     OBJ       4
    x[17]     packing[0]  100
    x[17]     packing[2]  157
    x[17]     packing[3]  69
    x[17]     packing[6]  88
    x[17]     packing[8]  51
    x[17]     packing[9]  77
    x[17]     packing[10]  79
    x[17]     packing[13]  38
    x[17]     packing[14]  9
    x[17]     packing[15]  10
    x[17]     packing[16]  55
    x[17]     packing[17]  67
    x[17]     packing[18]  166
    x[17]     packing[19]  79
    x[17]     packing[20]  159
    x[17]     packing[22]  14
    x[17]     packing[23]  133
    x[17]     packing[24]  183
    x[17]     packing[27]  37
    x[17]     packing[28]  146
    x[17]     packing[29]  192
    x[17]     packing[31]  3
    x[17]     packing[32]  182
    x[17]     packing[33]  99
    x[17]     packing[34]  33
    x[17]     packing[37]  143
    x[17]     packing[38]  149
    x[17]     packing[39]  71
    x[17]     packing[40]  112
    x[17]     packing[41]  6
    x[17]     packing[42]  149
    x[17]     packing[43]  37
    x[17]     packing[44]  182
    x[17]     packing[45]  58
    x[17]     packing[46]  67
    x[17]     packing[47]  185
    x[17]     packing[48]  142
    x[17]     packing[49]  164
    x[18]     OBJ       128
    x[18]     packing[0]  93
    x[18]     packing[2]  104
    x[18]     packing[4]  59
    x[18]     packing[5]  76
    x[18]     packing[8]  165
    x[18]     packing[9]  140
    x[18]     packing[12]  55
    x[18]     packing[13]  70
    x[18]     packing[14]  88
    x[18]     packing[15]  164
    x[18]     packing[16]  102
    x[18]     packing[17]  25
    x[18]     packing[18]  45
    x[18]     packing[19]  24
    x[18]     packing[20]  100
    x[18]     packing[21]  199
    x[18]     packing[22]  58
    x[18]     packing[23]  19
    x[18]     packing[24]  67
    x[18]     packing[26]  24
    x[18]     packing[27]  21
    x[18]     packing[28]  80
    x[18]     packing[30]  123
    x[18]     packing[31]  102
    x[18]     packing[33]  148
    x[18]     packing[34]  99
    x[18]     packing[35]  97
    x[18]     packing[36]  63
    x[18]     packing[37]  63
    x[18]     packing[40]  27
    x[18]     packing[41]  109
    x[18]     packing[42]  65
    x[18]     packing[45]  74
    x[18]     packing[46]  4
    x[18]     packing[47]  179
    x[18]     packing[48]  188
    x[18]     packing[49]  119
    x[19]     OBJ       137
    x[19]     packing[0]  163
    x[19]     packing[1]  126
    x[19]     packing[4]  77
    x[19]     packing[6]  184
    x[19]     packing[7]  24
    x[19]     packing[8]  126
    x[19]     packing[10]  90
    x[19]     packing[12]  65
    x[19]     packing[14]  154
    x[19]     packing[15]  164
    x[19]     packing[16]  132
    x[19]     packing[17]  109
    x[19]     packing[18]  193
    x[19]     packing[19]  72
    x[19]     packing[20]  47
    x[19]     packing[24]  166
    x[19]     packing[25]  94
    x[19]     packing[26]  101
    x[19]     packing[28]  30
    x[19]     packing[29]  145
    x[19]     packing[30]  41
    x[19]     packing[31]  119
    x[19]     packing[32]  23
    x[19]     packing[33]  78
    x[19]     packing[34]  185
    x[19]     packing[35]  173
    x[19]     packing[37]  134
    x[19]     packing[39]  125
    x[19]     packing[40]  118
    x[19]     packing[41]  171
    x[19]     packing[42]  52
    x[19]     packing[43]  30
    x[19]     packing[44]  28
    x[19]     packing[45]  46
    x[19]     packing[46]  85
    x[19]     packing[48]  55
    x[19]     packing[49]  41
    x[20]     OBJ       105
    x[20]     packing[1]  122
    x[20]     packing[3]  32
    x[20]     packing[4]  197
    x[20]     packing[5]  109
    x[20]     packing[6]  110
    x[20]     packing[7]  89
    x[20]     packing[9]  62
    x[20]     packing[10]  130
    x[20]     packing[12]  12
    x[20]     packing[14]  48
    x[20]     packing[15]  31
    x[20]     packing[16]  105
    x[20]     packing[17]  12
    x[20]     packing[18]  132
    x[20]     packing[19]  121
    x[20]     packing[20]  179
    x[20]     packing[21]  103
    x[20]     packing[22]  122
    x[20]     packing[23]  146
    x[20]     packing[24]  197
    x[20]     packing[26]  82
    x[20]     packing[28]  119
    x[20]     packing[29]  150
    x[20]     packing[31]  114
    x[20]     packing[32]  17
    x[20]     packing[33]  1
    x[20]     packing[34]  126
    x[20]     packing[35]  22
    x[20]     packing[36]  20
    x[20]     packing[37]  24
    x[20]     packing[38]  69
    x[20]     packing[41]  105
    x[20]     packing[42]  14
    x[20]     packing[43]  76
    x[20]     packing[44]  55
    x[20]     packing[45]  172
    x[20]     packing[46]  175
    x[20]     packing[47]  50
    MARKER    'MARKER'                 'INTEND'
RHS
    RHS1      packing[0]  802
    RHS1      packing[1]  729
    RHS1      packing[2]  688
    RHS1      packing[3]  866
    RHS1      packing[4]  557
    RHS1      packing[5]  711
    RHS1      packing[6]  762
    RHS1      packing[7]  555
    RHS1      packing[8]  827
    RHS1      packing[9]  862
    RHS1      packing[10]  519
    RHS1      packing[11]  586
    RHS1      packing[12]  360
    RHS1      packing[13]  775
    RHS1      packing[14]  463
    RHS1      packing[15]  468
    RHS1      packing[16]  792
    RHS1      packing[17]  649
    RHS1      packing[18]  929
    RHS1      packing[19]  586
    RHS1      packing[20]  1005
    RHS1      packing[21]  678
    RHS1      packing[22]  656
    RHS1      packing[23]  776
    RHS1      packing[24]  749
    RHS1      packing[25]  1171
    RHS1      packing[26]  750
    RHS1      packing[27]  378
    RHS1      packing[28]  790
    RHS1      packing[29]  969
    RHS1      packing[30]  707
    RHS1      packing[31]  518
    RHS1      packing[32]  770
    RHS1      packing[33]  811
    RHS1      packing[34]  702
    RHS1      packing[35]  693
    RHS1      packing[36]  639
    RHS1      packing[37]  907
    RHS1      packing[38]  375
    RHS1      packing[39]  741
    RHS1      packing[40]  685
    RHS1      packing[41]  694
    RHS1      packing[42]  673
    RHS1      packing[43]  777
    RHS1      packing[44]  699
    RHS1      packing[45]  743
    RHS1      packing[46]  541
    RHS1      packing[47]  721
    RHS1      packing[48]  871
    RHS1      packing[49]  568
BOUNDS
 BV BND1      x[1]    
 BV BND1      x[2]    
 BV BND1      x[3]    
 BV BND1      x[4]    
 BV BND1      x[5]    
 BV BND1      x[6]    
 BV BND1      x[7]    
 BV BND1      x[8]    
 BV BND1      x[9]    
 BV BND1      x[10]   
 BV BND1      x[11]   
 BV BND1      x[12]   
 BV BND1      x[13]   
 BV BND1      x[14]   
 BV BND1      x[15]   
 BV BND1      x[16]   
 BV BND1      x[17]   
 BV BND1      x[18]   
 BV BND1      x[19]   
 BV BND1      x[20]   
ENDATA
